NAME : explosion
TYPE : TSP
DIMENSION : 50
EDGE_WEIGHT_TYPE : EUC_2D
NODE_COORD_SECTION
1 989597 971606
2 33864 907390
3 214740 1998
4 44803 925024
5 397201 646072
6 864950 625262
7 76395 73657
8 186403 308279
9 760814 129978
10 788802 275737
11 201983 134585
12 419244 121001
13 50729 193912
14 230218 536391
15 104272 507229
16 862705 272264
17 942693 912317
18 908701 234063
19 144133 282349
20 308356 334150
21 782850 35633
22 917234 847953
23 165627 256229
24 940953 991775
25 792374 216212
26 266216 417626
27 404680 510918
28 13604 185127
29 921894 781392
30 244791 275650
31 52373 622219
32 908530 485157
33 996908 313740
34 260495 506325
35 182605 215964
36 725944 83389
37 435709 135067
38 910071 177905
39 831770 748125
40 386998 153366
41 834914 790272
42 694041 549925
43 567570 876675
44 336495 384622
45 432659 155764
46 324252 673738
47 88953 185347
48 942867 61504
49 791302 290217
50 293415 134115
EOF
